instances/shortest_path/discrete/shortest_path_4_16.lp
\ Model nohadani_4_16
\ LP format - for model browsing. Use MPS format to capture full model detail.
\ Signature: 0x26b3cf7f3313a25f
Minimize
  73.40980860893181 y[0,1] + 60.7289058027559 y[0,2]
   + 86.83893136145792 y[0,3] + 73.40980860893181 y[1,0]
   + 80.09993757800315 y[1,3] + 60.7289058027559 y[2,0]
   + 53.60037313302958 y[2,3] + 86.83893136145792 y[3,0]
   + 80.09993757800315 y[3,1] + 53.60037313302958 y[3,2] + x[0,1] + x[0,2]
   + x[0,3] + x[1,0] + x[1,3] + x[2,0] + x[2,3] + x[3,0] + x[3,1] + x[3,2]
   + 7.340980860893182 r[0,1] + 6.07289058027559 r[0,2]
   + 8.683893136145793 r[0,3] + 7.340980860893182 r[1,0]
   + 8.009993757800315 r[1,3] + 6.07289058027559 r[2,0]
   + 5.360037313302959 r[2,3] + 8.683893136145793 r[3,0]
   + 8.009993757800315 r[3,1] + 5.360037313302959 r[3,2]
Subject To
 flow_cons_inner_nodes[0]: - y[0,1] - y[0,2] - y[0,3] + y[1,0] + y[2,0]
   + y[3,0] = 0
 flow_cons_inner_nodes[3]: y[0,3] + y[1,3] + y[2,3] - y[3,0] - y[3,1]
   - y[3,2] = 0
 flow_cons_source: - y[0,1] + y[1,0] + y[1,3] - y[3,1] = 1
 flow_cons_target: y[0,2] - y[2,0] - y[2,3] + y[3,2] = 1
 primal_lower: 1.748139938195316 x[0,1] + 0.5127943491830526 x[0,2]
   + 5.590994267870798 x[0,3] + 0.1467098564409961 x[1,0]
   + 3.268807851024344 x[1,3] + 6.314857882346033 x[2,0]
   + 4.463746942683831 x[2,3] + 2.25106897608599 x[3,0]
   + 1.72584246118208 x[3,1] + 6.504192783466539 x[3,2] + 47 u[0,1]
   + 72 u[0,2] + 58 u[0,3] + 79 u[1,0] + 8 u[1,3] + 17 u[2,0] + 37 u[2,3]
   + 71 u[3,0] + 85 u[3,1] + 30 u[3,2] <= 85
 mccormick1[0,1]: - u[0,1] + r[0,1] <= 0
 mccormick1[0,2]: - u[0,2] + r[0,2] <= 0
 mccormick1[0,3]: - u[0,3] + r[0,3] <= 0
 mccormick1[1,0]: - u[1,0] + r[1,0] <= 0
 mccormick1[1,3]: - u[1,3] + r[1,3] <= 0
 mccormick1[2,0]: - u[2,0] + r[2,0] <= 0
 mccormick1[2,3]: - u[2,3] + r[2,3] <= 0
 mccormick1[3,0]: - u[3,0] + r[3,0] <= 0
 mccormick1[3,1]: - u[3,1] + r[3,1] <= 0
 mccormick1[3,2]: - u[3,2] + r[3,2] <= 0
 mccormick2[0,1]: - y[0,1] + r[0,1] <= 0
 mccormick2[0,2]: - y[0,2] + r[0,2] <= 0
 mccormick2[0,3]: - y[0,3] + r[0,3] <= 0
 mccormick2[1,0]: - y[1,0] + r[1,0] <= 0
 mccormick2[1,3]: - y[1,3] + r[1,3] <= 0
 mccormick2[2,0]: - y[2,0] + r[2,0] <= 0
 mccormick2[2,3]: - y[2,3] + r[2,3] <= 0
 mccormick2[3,0]: - y[3,0] + r[3,0] <= 0
 mccormick2[3,1]: - y[3,1] + r[3,1] <= 0
 mccormick2[3,2]: - y[3,2] + r[3,2] <= 0
 mccormick3[0,1]: - y[0,1] - u[0,1] + r[0,1] >= -1
 mccormick3[0,2]: - y[0,2] - u[0,2] + r[0,2] >= -1
 mccormick3[0,3]: - y[0,3] - u[0,3] + r[0,3] >= -1
 mccormick3[1,0]: - y[1,0] - u[1,0] + r[1,0] >= -1
 mccormick3[1,3]: - y[1,3] - u[1,3] + r[1,3] >= -1
 mccormick3[2,0]: - y[2,0] - u[2,0] + r[2,0] >= -1
 mccormick3[2,3]: - y[2,3] - u[2,3] + r[2,3] >= -1
 mccormick3[3,0]: - y[3,0] - u[3,0] + r[3,0] >= -1
 mccormick3[3,1]: - y[3,1] - u[3,1] + r[3,1] >= -1
 mccormick3[3,2]: - y[3,2] - u[3,2] + r[3,2] >= -1
Bounds
Binaries
 y[0,1] y[0,2] y[0,3] y[1,0] y[1,3] y[2,0] y[2,3] y[3,0] y[3,1] y[3,2]
 x[0,1] x[0,2] x[0,3] x[1,0] x[1,3] x[2,0] x[2,3] x[3,0] x[3,1] x[3,2]
 u[0,1] u[0,2] u[0,3] u[1,0] u[1,3] u[2,0] u[2,3] u[3,0] u[3,1] u[3,2]
 r[0,1] r[0,2] r[0,3] r[1,0] r[1,3] r[2,0] r[2,3] r[3,0] r[3,1] r[3,2]
End
