instances/shortest_path/discrete/shortest_path_4_16.mps
* Signature: 0x26b3cf7f3313a25f
NAME nohadani_4_16
ROWS
 N  OBJ
 E  flow_cons_inner_nodes[0]
 E  flow_cons_inner_nodes[3]
 E  flow_cons_source
 E  flow_cons_target
 L  primal_lower
 L  mccormick1[0,1]
 L  mccormick1[0,2]
 L  mccormick1[0,3]
 L  mccormick1[1,0]
 L  mccormick1[1,3]
 L  mccormick1[2,0]
 L  mccormick1[2,3]
 L  mccormick1[3,0]
 L  mccormick1[3,1]
 L  mccormick1[3,2]
 L  mccormick2[0,1]
 L  mccormick2[0,2]
 L  mccormick2[0,3]
 L  mccormick2[1,0]
 L  mccormick2[1,3]
 L  mccormick2[2,0]
 L  mccormick2[2,3]
 L  mccormick2[3,0]
 L  mccormick2[3,1]
 L  mccormick2[3,2]
 G  mccormick3[0,1]
 G  mccormick3[0,2]
 G  mccormick3[0,3]
 G  mccormick3[1,0]
 G  mccormick3[1,3]
 G  mccormick3[2,0]
 G  mccormick3[2,3]
 G  mccormick3[3,0]
 G  mccormick3[3,1]
 G  mccormick3[3,2]
COLUMNS
    MARKER    'MARKER'                 'INTORG'
    y[0,1]    OBJ       7.3409808608931812e+01
    y[0,1]    flow_cons_inner_nodes[0]  -1
    y[0,1]    flow_cons_source  -1
    y[0,1]    mccormick2[0,1]  -1
    y[0,1]    mccormick3[0,1]  -1
    y[0,2]    OBJ       6.0728905802755904e+01
    y[0,2]    flow_cons_inner_nodes[0]  -1
    y[0,2]    flow_cons_target  1
    y[0,2]    mccormick2[0,2]  -1
    y[0,2]    mccormick3[0,2]  -1
    y[0,3]    OBJ       8.6838931361457924e+01
    y[0,3]    flow_cons_inner_nodes[0]  -1
    y[0,3]    flow_cons_inner_nodes[3]  1
    y[0,3]    mccormick2[0,3]  -1
    y[0,3]    mccormick3[0,3]  -1
    y[1,0]    OBJ       7.3409808608931812e+01
    y[1,0]    flow_cons_inner_nodes[0]  1
    y[1,0]    flow_cons_source  1
    y[1,0]    mccormick2[1,0]  -1
    y[1,0]    mccormick3[1,0]  -1
    y[1,3]    OBJ       8.0099937578003150e+01
    y[1,3]    flow_cons_inner_nodes[3]  1
    y[1,3]    flow_cons_source  1
    y[1,3]    mccormick2[1,3]  -1
    y[1,3]    mccormick3[1,3]  -1
    y[2,0]    OBJ       6.0728905802755904e+01
    y[2,0]    flow_cons_inner_nodes[0]  1
    y[2,0]    flow_cons_target  -1
    y[2,0]    mccormick2[2,0]  -1
    y[2,0]    mccormick3[2,0]  -1
    y[2,3]    OBJ       5.3600373133029585e+01
    y[2,3]    flow_cons_inner_nodes[3]  1
    y[2,3]    flow_cons_target  -1
    y[2,3]    mccormick2[2,3]  -1
    y[2,3]    mccormick3[2,3]  -1
    y[3,0]    OBJ       8.6838931361457924e+01
    y[3,0]    flow_cons_inner_nodes[0]  1
    y[3,0]    flow_cons_inner_nodes[3]  -1
    y[3,0]    mccormick2[3,0]  -1
    y[3,0]    mccormick3[3,0]  -1
    y[3,1]    OBJ       8.0099937578003150e+01
    y[3,1]    flow_cons_inner_nodes[3]  -1
    y[3,1]    flow_cons_source  -1
    y[3,1]    mccormick2[3,1]  -1
    y[3,1]    mccormick3[3,1]  -1
    y[3,2]    OBJ       5.3600373133029585e+01
    y[3,2]    flow_cons_inner_nodes[3]  -1
    y[3,2]    flow_cons_target  1
    y[3,2]    mccormick2[3,2]  -1
    y[3,2]    mccormick3[3,2]  -1
    x[0,1]    OBJ       1
    x[0,1]    primal_lower  1.7481399381953162e+00
    x[0,2]    OBJ       1
    x[0,2]    primal_lower  5.1279434918305256e-01
    x[0,3]    OBJ       1
    x[0,3]    primal_lower  5.5909942678707978e+00
    x[1,0]    OBJ       1
    x[1,0]    primal_lower  1.4670985644099610e-01
    x[1,3]    OBJ       1
    x[1,3]    primal_lower  3.2688078510243441e+00
    x[2,0]    OBJ       1
    x[2,0]    primal_lower  6.3148578823460326e+00
    x[2,3]    OBJ       1
    x[2,3]    primal_lower  4.4637469426838310e+00
    x[3,0]    OBJ       1
    x[3,0]    primal_lower  2.2510689760859903e+00
    x[3,1]    OBJ       1
    x[3,1]    primal_lower  1.7258424611820802e+00
    x[3,2]    OBJ       1
    x[3,2]    primal_lower  6.5041927834665385e+00
    u[0,1]    primal_lower  47
    u[0,1]    mccormick1[0,1]  -1
    u[0,1]    mccormick3[0,1]  -1
    u[0,2]    primal_lower  72
    u[0,2]    mccormick1[0,2]  -1
    u[0,2]    mccormick3[0,2]  -1
    u[0,3]    primal_lower  58
    u[0,3]    mccormick1[0,3]  -1
    u[0,3]    mccormick3[0,3]  -1
    u[1,0]    primal_lower  79
    u[1,0]    mccormick1[1,0]  -1
    u[1,0]    mccormick3[1,0]  -1
    u[1,3]    primal_lower  8
    u[1,3]    mccormick1[1,3]  -1
    u[1,3]    mccormick3[1,3]  -1
    u[2,0]    primal_lower  17
    u[2,0]    mccormick1[2,0]  -1
    u[2,0]    mccormick3[2,0]  -1
    u[2,3]    primal_lower  37
    u[2,3]    mccormick1[2,3]  -1
    u[2,3]    mccormick3[2,3]  -1
    u[3,0]    primal_lower  71
    u[3,0]    mccormick1[3,0]  -1
    u[3,0]    mccormick3[3,0]  -1
    u[3,1]    primal_lower  85
    u[3,1]    mccormick1[3,1]  -1
    u[3,1]    mccormick3[3,1]  -1
    u[3,2]    primal_lower  30
    u[3,2]    mccormick1[3,2]  -1
    u[3,2]    mccormick3[3,2]  -1
    r[0,1]    OBJ       7.3409808608931817e+00
    r[0,1]    mccormick1[0,1]  1
    r[0,1]    mccormick2[0,1]  1
    r[0,1]    mccormick3[0,1]  1
    r[0,2]    OBJ       6.07289058027559
    r[0,2]    mccormick1[0,2]  1
    r[0,2]    mccormick2[0,2]  1
    r[0,2]    mccormick3[0,2]  1
    r[0,3]    OBJ       8.6838931361457927e+00
    r[0,3]    mccormick1[0,3]  1
    r[0,3]    mccormick2[0,3]  1
    r[0,3]    mccormick3[0,3]  1
    r[1,0]    OBJ       7.3409808608931817e+00
    r[1,0]    mccormick1[1,0]  1
    r[1,0]    mccormick2[1,0]  1
    r[1,0]    mccormick3[1,0]  1
    r[1,3]    OBJ       8.0099937578003146e+00
    r[1,3]    mccormick1[1,3]  1
    r[1,3]    mccormick2[1,3]  1
    r[1,3]    mccormick3[1,3]  1
    r[2,0]    OBJ       6.07289058027559
    r[2,0]    mccormick1[2,0]  1
    r[2,0]    mccormick2[2,0]  1
    r[2,0]    mccormick3[2,0]  1
    r[2,3]    OBJ       5.3600373133029589e+00
    r[2,3]    mccormick1[2,3]  1
    r[2,3]    mccormick2[2,3]  1
    r[2,3]    mccormick3[2,3]  1
    r[3,0]    OBJ       8.6838931361457927e+00
    r[3,0]    mccormick1[3,0]  1
    r[3,0]    mccormick2[3,0]  1
    r[3,0]    mccormick3[3,0]  1
    r[3,1]    OBJ       8.0099937578003146e+00
    r[3,1]    mccormick1[3,1]  1
    r[3,1]    mccormick2[3,1]  1
    r[3,1]    mccormick3[3,1]  1
    r[3,2]    OBJ       5.3600373133029589e+00
    r[3,2]    mccormick1[3,2]  1
    r[3,2]    mccormick2[3,2]  1
    r[3,2]    mccormick3[3,2]  1
    MARKER    'MARKER'                 'INTEND'
RHS
    RHS1      flow_cons_source  1
    RHS1      flow_cons_target  1
    RHS1      primal_lower  85
    RHS1      mccormick3[0,1]  -1
    RHS1      mccormick3[0,2]  -1
    RHS1      mccormick3[0,3]  -1
    RHS1      mccormick3[1,0]  -1
    RHS1      mccormick3[1,3]  -1
    RHS1      mccormick3[2,0]  -1
    RHS1      mccormick3[2,3]  -1
    RHS1      mccormick3[3,0]  -1
    RHS1      mccormick3[3,1]  -1
    RHS1      mccormick3[3,2]  -1
BOUNDS
 BV BND1      y[0,1]  
 BV BND1      y[0,2]  
 BV BND1      y[0,3]  
 BV BND1      y[1,0]  
 BV BND1      y[1,3]  
 BV BND1      y[2,0]  
 BV BND1      y[2,3]  
 BV BND1      y[3,0]  
 BV BND1      y[3,1]  
 BV BND1      y[3,2]  
 BV BND1      x[0,1]  
 BV BND1      x[0,2]  
 BV BND1      x[0,3]  
 BV BND1      x[1,0]  
 BV BND1      x[1,3]  
 BV BND1      x[2,0]  
 BV BND1      x[2,3]  
 BV BND1      x[3,0]  
 BV BND1      x[3,1]  
 BV BND1      x[3,2]  
 BV BND1      u[0,1]  
 BV BND1      u[0,2]  
 BV BND1      u[0,3]  
 BV BND1      u[1,0]  
 BV BND1      u[1,3]  
 BV BND1      u[2,0]  
 BV BND1      u[2,3]  
 BV BND1      u[3,0]  
 BV BND1      u[3,1]  
 BV BND1      u[3,2]  
 BV BND1      r[0,1]  
 BV BND1      r[0,2]  
 BV BND1      r[0,3]  
 BV BND1      r[1,0]  
 BV BND1      r[1,3]  
 BV BND1      r[2,0]  
 BV BND1      r[2,3]  
 BV BND1      r[3,0]  
 BV BND1      r[3,1]  
 BV BND1      r[3,2]  
ENDATA
