instances/shortest_path/discrete/shortest_path_4_16.kp
72037
85

[1.7481399381953162 0.5127943491830526 5.590994267870798 0.1467098564409961 3.268807851024344 6.314857882346033 4.463746942683831 2.2510689760859903 1.7258424611820802 6.5041927834665385]

[47 72 58 79 8 17 37 71 85 30]
